Route #1: 12 45 52 22 55 54 21 25 48 63
Route #2: 9 62 61 30 57 3
Route #3: 60 6 34 64 40 44 42 36
Route #4: 53 39 4 14 50 46
Route #5: 11 35 49 1 19 20
Route #6: 7 8 23 37 65 32
Route #7: 51 59 24 29 38 17
Route #8: 10 27 43 16 41 66 2 26
Route #9: 47 33 18 31 13
Route #10: 5 28 56 15 58
Cost 1094